%chk=methane.chk
# sp

title

0 1
 C                 -3.45755885    0.99736213    0.00000000
 H                 -3.10090442   -0.01144787    0.00000000
 H                 -3.10088601    1.50176032    0.87365150
 H                 -3.10088601    1.50176032   -0.87365150
 H                 -4.52755885    0.99737531    0.00000000